certificates/rado_a7_c227_N33.cnf
c Rad2 upper bound instance: x1 + 7*x2 - x3 = 227, interval [1,33]
p cnf 33 218
1 5 33 0
-1 -5 -33 0
2 6 33 0
-2 -6 -33 0
3 7 33 0
-3 -7 -33 0
1 4 32 0
-1 -4 -32 0
4 8 33 0
-4 -8 -33 0
2 5 32 0
-2 -5 -32 0
5 9 33 0
-5 -9 -33 0
3 6 32 0
-3 -6 -32 0
6 10 33 0
-6 -10 -33 0
4 7 32 0
-4 -7 -32 0
7 11 33 0
-7 -11 -33 0
5 8 32 0
-5 -8 -32 0
8 12 33 0
-8 -12 -33 0
6 9 32 0
-6 -9 -32 0
9 13 33 0
-9 -13 -33 0
7 10 32 0
-7 -10 -32 0
10 14 33 0
-10 -14 -33 0
1 11 31 0
-1 -11 -31 0
8 11 32 0
-8 -11 -32 0
11 15 33 0
-11 -15 -33 0
2 12 31 0
-2 -12 -31 0
9 12 32 0
-9 -12 -32 0
12 16 33 0
-12 -16 -33 0
3 13 31 0
-3 -13 -31 0
10 13 32 0
-10 -13 -32 0
13 17 33 0
-13 -17 -33 0
4 14 31 0
-4 -14 -31 0
11 14 32 0
-11 -14 -32 0
14 18 33 0
-14 -18 -33 0
5 15 31 0
-5 -15 -31 0
12 15 32 0
-12 -15 -32 0
15 19 33 0
-15 -19 -33 0
6 16 31 0
-6 -16 -31 0
13 16 32 0
-13 -16 -32 0
16 20 33 0
-16 -20 -33 0
7 17 31 0
-7 -17 -31 0
14 17 32 0
-14 -17 -32 0
17 21 33 0
-17 -21 -33 0
1 18 30 0
-1 -18 -30 0
8 18 31 0
-8 -18 -31 0
15 18 32 0
-15 -18 -32 0
18 22 33 0
-18 -22 -33 0
2 19 30 0
-2 -19 -30 0
9 19 31 0
-9 -19 -31 0
16 19 32 0
-16 -19 -32 0
19 23 33 0
-19 -23 -33 0
3 20 30 0
-3 -20 -30 0
10 20 31 0
-10 -20 -31 0
17 20 32 0
-17 -20 -32 0
20 24 33 0
-20 -24 -33 0
4 21 30 0
-4 -21 -30 0
11 21 31 0
-11 -21 -31 0
18 21 32 0
-18 -21 -32 0
21 25 33 0
-21 -25 -33 0
5 22 30 0
-5 -22 -30 0
12 22 31 0
-12 -22 -31 0
19 22 32 0
-19 -22 -32 0
22 26 33 0
-22 -26 -33 0
6 23 30 0
-6 -23 -30 0
13 23 31 0
-13 -23 -31 0
20 23 32 0
-20 -23 -32 0
23 27 33 0
-23 -27 -33 0
7 24 30 0
-7 -24 -30 0
14 24 31 0
-14 -24 -31 0
21 24 32 0
-21 -24 -32 0
24 28 33 0
-24 -28 -33 0
1 25 29 0
-1 -25 -29 0
8 25 30 0
-8 -25 -30 0
15 25 31 0
-15 -25 -31 0
22 25 32 0
-22 -25 -32 0
25 29 33 0
-25 -29 -33 0
2 26 29 0
-2 -26 -29 0
9 26 30 0
-9 -26 -30 0
16 26 31 0
-16 -26 -31 0
23 26 32 0
-23 -26 -32 0
26 30 33 0
-26 -30 -33 0
3 27 29 0
-3 -27 -29 0
10 27 30 0
-10 -27 -30 0
17 27 31 0
-17 -27 -31 0
24 27 32 0
-24 -27 -32 0
27 31 33 0
-27 -31 -33 0
4 28 29 0
-4 -28 -29 0
11 28 30 0
-11 -28 -30 0
18 28 31 0
-18 -28 -31 0
25 28 32 0
-25 -28 -32 0
28 32 33 0
-28 -32 -33 0
5 29 0
-5 -29 0
12 29 30 0
-12 -29 -30 0
19 29 31 0
-19 -29 -31 0
26 29 32 0
-26 -29 -32 0
29 33 0
-29 -33 0
6 29 30 0
-6 -29 -30 0
13 30 0
-13 -30 0
20 30 31 0
-20 -30 -31 0
27 30 32 0
-27 -30 -32 0
7 29 31 0
-7 -29 -31 0
14 30 31 0
-14 -30 -31 0
21 31 0
-21 -31 0
28 31 32 0
-28 -31 -32 0
1 28 32 0
-1 -28 -32 0
8 29 32 0
-8 -29 -32 0
15 30 32 0
-15 -30 -32 0
22 31 32 0
-22 -31 -32 0
29 32 0
-29 -32 0
2 28 33 0
-2 -28 -33 0
9 29 33 0
-9 -29 -33 0
16 30 33 0
-16 -30 -33 0
23 31 33 0
-23 -31 -33 0
30 32 33 0
-30 -32 -33 0
