certificates/rado_a7_c227_N33.drat
-33 0
29 0
-5 0
-32 0
1 0
9 0
8 0
2 0
28 0
30 0
-25 0
-26 0
-4 0
-11 0
-13 0
-18 0
-19 0
-12 0
-6 0
21 0
22 0
23 0
7 0
15 0
14 0
10 0
17 0
16 0
3 0
-31 0
-24 0
-27 0
-20 0
0
